\ENCODING=ISO-8859-1
\Problem name: IloCplex

Minimize
 obj: 77 x_00 + 85 x_01 + 96 x_02 + 112 x_03 + 130 x_04 + 149 x_05 + 169 x_06
      + 187 x_07 + 203 x_08 + 214 x_09 + 103 x_10 + 113 x_11 + 129 x_12
      + 149 x_13 + 174 x_14 + 199 x_15 + 225 x_16 + 249 x_17 + 270 x_18
      + 286 x_19 + 5170 x_20 + 5669 x_21 + 6464 x_22 + 7499 x_23 + 8705 x_24
      + 9999 x_25 + 11294 x_26 + 12499 x_27 + 13535 x_28 + 14330 x_29 + 20 s_0
      + 20 s_1 + 20 s_2 + 20 s_3 + 20 s_4 + 20 s_5 + 20 s_6 + 20 s_7 + 20 s_8
      + 20 s_9
Subject To
 c1:  x_00 <= 850
 c2:  x_01 <= 850
 c3:  x_02 <= 850
 c4:  x_03 <= 850
 c5:  x_04 <= 850
 c6:  x_05 <= 850
 c7:  x_06 <= 850
 c8:  x_07 <= 850
 c9:  x_08 <= 850
 c10: x_09 <= 850
 c11: x_10 <= 850
 c12: x_11 <= 850
 c13: x_12 <= 850
 c14: x_13 <= 850
 c15: x_14 <= 850
 c16: x_15 <= 850
 c17: x_16 <= 850
 c18: x_17 <= 850
 c19: x_18 <= 850
 c20: x_19 <= 850
 c21: x_20 <= 100000
 c22: x_21 <= 100000
 c23: x_22 <= 100000
 c24: x_23 <= 100000
 c25: x_24 <= 100000
 c26: x_25 <= 100000
 c27: x_26 <= 100000
 c28: x_27 <= 100000
 c29: x_28 <= 100000
 c30: x_29 <= 100000
 c31: x_00 + x_10 + x_20 - s_0  = 1482
 c32: x_01 + x_11 + x_21 + s_0 - s_1  = 1433
 c33: x_02 + x_12 + x_22 + s_1 - s_2  = 1353
 c34: x_03 + x_13 + x_23 + s_2 - s_3  = 1250
 c35: x_04 + x_14 + x_24 + s_3 - s_4  = 1213
 c36: x_05 + x_15 + x_25 + s_4 - s_5  = 1172
 c37: x_06 + x_16 + x_26 + s_5 - s_6  = 918
 c38: x_07 + x_17 + x_27 + s_6 - s_7  = 859
 c39: x_08 + x_18 + x_28 + s_7 - s_8  = 765
 c40: x_09 + x_19 + x_29 + s_8 - s_9  = 665
Bounds
      x_00 >= 0
      x_01 >= 0
      x_02 >= 0
      x_03 >= 0
      x_04 >= 0
      x_05 >= 0
      x_06 >= 0
      x_07 >= 0
      x_08 >= 0
      x_09 >= 0
      x_10 >= 0
      x_11 >= 0
      x_12 >= 0
      x_13 >= 0
      x_14 >= 0
      x_15 >= 0
      x_16 >= 0
      x_17 >= 0
      x_18 >= 0
      x_19 >= 0
      x_20 >= 0
      x_21 >= 0
      x_22 >= 0
      x_23 >= 0
      x_24 >= 0
      x_25 >= 0
      x_26 >= 0
      x_27 >= 0
      x_28 >= 0
      x_29 >= 0
      s_0 >= 0
      s_1 >= 0
      s_2 >= 0
      s_3 >= 0
      s_4 >= 0
      s_5 >= 0
      s_6 >= 0
      s_7 >= 0
      s_8 >= 0
      s_9 >= 0
Generals
 x_00  x_01  x_02  x_03  x_04  x_05  x_06  x_07  x_08  x_09  x_10  x_11  x_12 
 x_13  x_14  x_15  x_16  x_17  x_18  x_19  x_20  x_21  x_22  x_23  x_24  x_25 
 x_26  x_27  x_28  x_29  s_0  s_1  s_2  s_3  s_4  s_5  s_6  s_7  s_8  s_9 
End
